c File: flat50_3_0.col
c
c SOURCE: Joseph Culberson (joe@cs.ualberta.ca)
c DESCRIPTION: Quasi-random coloring problem
c              generated with flatness = 0
c                             probability = 0.139
c                             known coloring = 3
c                             random seed = 1053
c              Creation Date:  Tue Jun  9 12:00:03 1998
c Maximum degree = 8 Minimum degree = 2
c p edge 50 115
c cnf created by edge2cnf
p cnf 150 545
-1 -2 0
-1 -3 0
-2 -3 0
1 2 3 0
-4 -5 0
-4 -6 0
-5 -6 0
4 5 6 0
-7 -8 0
-7 -9 0
-8 -9 0
7 8 9 0
-10 -11 0
-10 -12 0
-11 -12 0
10 11 12 0
-13 -14 0
-13 -15 0
-14 -15 0
13 14 15 0
-16 -17 0
-16 -18 0
-17 -18 0
16 17 18 0
-19 -20 0
-19 -21 0
-20 -21 0
19 20 21 0
-22 -23 0
-22 -24 0
-23 -24 0
22 23 24 0
-25 -26 0
-25 -27 0
-26 -27 0
25 26 27 0
-28 -29 0
-28 -30 0
-29 -30 0
28 29 30 0
-31 -32 0
-31 -33 0
-32 -33 0
31 32 33 0
-34 -35 0
-34 -36 0
-35 -36 0
34 35 36 0
-37 -38 0
-37 -39 0
-38 -39 0
37 38 39 0
-40 -41 0
-40 -42 0
-41 -42 0
40 41 42 0
-43 -44 0
-43 -45 0
-44 -45 0
43 44 45 0
-46 -47 0
-46 -48 0
-47 -48 0
46 47 48 0
-49 -50 0
-49 -51 0
-50 -51 0
49 50 51 0
-52 -53 0
-52 -54 0
-53 -54 0
52 53 54 0
-55 -56 0
-55 -57 0
-56 -57 0
55 56 57 0
-58 -59 0
-58 -60 0
-59 -60 0
58 59 60 0
-61 -62 0
-61 -63 0
-62 -63 0
61 62 63 0
-64 -65 0
-64 -66 0
-65 -66 0
64 65 66 0
-67 -68 0
-67 -69 0
-68 -69 0
67 68 69 0
-70 -71 0
-70 -72 0
-71 -72 0
70 71 72 0
-73 -74 0
-73 -75 0
-74 -75 0
73 74 75 0
-76 -77 0
-76 -78 0
-77 -78 0
76 77 78 0
-79 -80 0
-79 -81 0
-80 -81 0
79 80 81 0
-82 -83 0
-82 -84 0
-83 -84 0
82 83 84 0
-85 -86 0
-85 -87 0
-86 -87 0
85 86 87 0
-88 -89 0
-88 -90 0
-89 -90 0
88 89 90 0
-91 -92 0
-91 -93 0
-92 -93 0
91 92 93 0
-94 -95 0
-94 -96 0
-95 -96 0
94 95 96 0
-97 -98 0
-97 -99 0
-98 -99 0
97 98 99 0
-100 -101 0
-100 -102 0
-101 -102 0
100 101 102 0
-103 -104 0
-103 -105 0
-104 -105 0
103 104 105 0
-106 -107 0
-106 -108 0
-107 -108 0
106 107 108 0
-109 -110 0
-109 -111 0
-110 -111 0
109 110 111 0
-112 -113 0
-112 -114 0
-113 -114 0
112 113 114 0
-115 -116 0
-115 -117 0
-116 -117 0
115 116 117 0
-118 -119 0
-118 -120 0
-119 -120 0
118 119 120 0
-121 -122 0
-121 -123 0
-122 -123 0
121 122 123 0
-124 -125 0
-124 -126 0
-125 -126 0
124 125 126 0
-127 -128 0
-127 -129 0
-128 -129 0
127 128 129 0
-130 -131 0
-130 -132 0
-131 -132 0
130 131 132 0
-133 -134 0
-133 -135 0
-134 -135 0
133 134 135 0
-136 -137 0
-136 -138 0
-137 -138 0
136 137 138 0
-139 -140 0
-139 -141 0
-140 -141 0
139 140 141 0
-142 -143 0
-142 -144 0
-143 -144 0
142 143 144 0
-145 -146 0
-145 -147 0
-146 -147 0
145 146 147 0
-148 -149 0
-148 -150 0
-149 -150 0
148 149 150 0
-70 -1 0
-71 -2 0
-72 -3 0
-73 -1 0
-74 -2 0
-75 -3 0
-82 -1 0
-83 -2 0
-84 -3 0
-94 -1 0
-95 -2 0
-96 -3 0
-112 -1 0
-113 -2 0
-114 -3 0
-115 -1 0
-116 -2 0
-117 -3 0
-64 -4 0
-65 -5 0
-66 -6 0
-76 -4 0
-77 -5 0
-78 -6 0
-130 -4 0
-131 -5 0
-132 -6 0
-142 -4 0
-143 -5 0
-144 -6 0
-100 -7 0
-101 -8 0
-102 -9 0
-139 -7 0
-140 -8 0
-141 -9 0
-82 -10 0
-83 -11 0
-84 -12 0
-97 -10 0
-98 -11 0
-99 -12 0
-136 -10 0
-137 -11 0
-138 -12 0
-148 -10 0
-149 -11 0
-150 -12 0
-70 -13 0
-71 -14 0
-72 -15 0
-115 -13 0
-116 -14 0
-117 -15 0
-100 -16 0
-101 -17 0
-102 -18 0
-109 -16 0
-110 -17 0
-111 -18 0
-115 -16 0
-116 -17 0
-117 -18 0
-130 -16 0
-131 -17 0
-132 -18 0
-145 -16 0
-146 -17 0
-147 -18 0
-76 -19 0
-77 -20 0
-78 -21 0
-100 -19 0
-101 -20 0
-102 -21 0
-106 -19 0
-107 -20 0
-108 -21 0
-130 -19 0
-131 -20 0
-132 -21 0
-139 -19 0
-140 -20 0
-141 -21 0
-55 -22 0
-56 -23 0
-57 -24 0
-58 -22 0
-59 -23 0
-60 -24 0
-109 -22 0
-110 -23 0
-111 -24 0
-139 -22 0
-140 -23 0
-141 -24 0
-145 -22 0
-146 -23 0
-147 -24 0
-79 -25 0
-80 -26 0
-81 -27 0
-124 -25 0
-125 -26 0
-126 -27 0
-52 -28 0
-53 -29 0
-54 -30 0
-61 -28 0
-62 -29 0
-63 -30 0
-76 -28 0
-77 -29 0
-78 -30 0
-91 -28 0
-92 -29 0
-93 -30 0
-121 -28 0
-122 -29 0
-123 -30 0
-124 -28 0
-125 -29 0
-126 -30 0
-85 -31 0
-86 -32 0
-87 -33 0
-88 -31 0
-89 -32 0
-90 -33 0
-91 -31 0
-92 -32 0
-93 -33 0
-94 -31 0
-95 -32 0
-96 -33 0
-103 -34 0
-104 -35 0
-105 -36 0
-106 -34 0
-107 -35 0
-108 -36 0
-121 -34 0
-122 -35 0
-123 -36 0
-124 -34 0
-125 -35 0
-126 -36 0
-61 -37 0
-62 -38 0
-63 -39 0
-70 -37 0
-71 -38 0
-72 -39 0
-76 -37 0
-77 -38 0
-78 -39 0
-79 -37 0
-80 -38 0
-81 -39 0
-139 -37 0
-140 -38 0
-141 -39 0
-52 -40 0
-53 -41 0
-54 -42 0
-58 -40 0
-59 -41 0
-60 -42 0
-103 -40 0
-104 -41 0
-105 -42 0
-127 -40 0
-128 -41 0
-129 -42 0
-136 -40 0
-137 -41 0
-138 -42 0
-64 -43 0
-65 -44 0
-66 -45 0
-94 -43 0
-95 -44 0
-96 -45 0
-127 -43 0
-128 -44 0
-129 -45 0
-136 -43 0
-137 -44 0
-138 -45 0
-148 -43 0
-149 -44 0
-150 -45 0
-70 -46 0
-71 -47 0
-72 -48 0
-94 -46 0
-95 -47 0
-96 -48 0
-97 -46 0
-98 -47 0
-99 -48 0
-100 -46 0
-101 -47 0
-102 -48 0
-115 -46 0
-116 -47 0
-117 -48 0
-64 -49 0
-65 -50 0
-66 -51 0
-79 -49 0
-80 -50 0
-81 -51 0
-82 -49 0
-83 -50 0
-84 -51 0
-88 -49 0
-89 -50 0
-90 -51 0
-127 -49 0
-128 -50 0
-129 -51 0
-130 -49 0
-131 -50 0
-132 -51 0
-142 -49 0
-143 -50 0
-144 -51 0
-148 -49 0
-149 -50 0
-150 -51 0
-127 -52 0
-128 -53 0
-129 -54 0
-142 -52 0
-143 -53 0
-144 -54 0
-145 -52 0
-146 -53 0
-147 -54 0
-148 -52 0
-149 -53 0
-150 -54 0
-103 -55 0
-104 -56 0
-105 -57 0
-106 -55 0
-107 -56 0
-108 -57 0
-112 -55 0
-113 -56 0
-114 -57 0
-124 -55 0
-125 -56 0
-126 -57 0
-103 -58 0
-104 -59 0
-105 -60 0
-109 -58 0
-110 -59 0
-111 -60 0
-127 -58 0
-128 -59 0
-129 -60 0
-109 -61 0
-110 -62 0
-111 -63 0
-124 -61 0
-125 -62 0
-126 -63 0
-133 -67 0
-134 -68 0
-135 -69 0
-139 -67 0
-140 -68 0
-141 -69 0
-118 -70 0
-119 -71 0
-120 -72 0
-124 -70 0
-125 -71 0
-126 -72 0
-133 -70 0
-134 -71 0
-135 -72 0
-145 -70 0
-146 -71 0
-147 -72 0
-121 -73 0
-122 -74 0
-123 -75 0
-118 -76 0
-119 -77 0
-120 -78 0
-127 -76 0
-128 -77 0
-129 -78 0
-130 -76 0
-131 -77 0
-132 -78 0
-142 -76 0
-143 -77 0
-144 -78 0
-109 -79 0
-110 -80 0
-111 -81 0
-103 -82 0
-104 -83 0
-105 -84 0
-124 -85 0
-125 -86 0
-126 -87 0
-106 -88 0
-107 -89 0
-108 -90 0
-121 -88 0
-122 -89 0
-123 -90 0
-127 -88 0
-128 -89 0
-129 -90 0
-130 -88 0
-131 -89 0
-132 -90 0
-118 -91 0
-119 -92 0
-120 -93 0
-121 -91 0
-122 -92 0
-123 -93 0
-112 -94 0
-113 -95 0
-114 -96 0
-130 -94 0
-131 -95 0
-132 -96 0
-118 -97 0
-119 -98 0
-120 -99 0
-145 -97 0
-146 -98 0
-147 -99 0
-109 -100 0
-110 -101 0
-111 -102 0
